c CNF
c from Selman's wff generator
p cnf 200  1500
1.0 102 17 0
1.0 18 6 0
1.0 -183 -190 0
1.0 -55 180 0
1.0 -187 28 0
1.0 172 47 0
1.0 -9 98 0
1.0 59 -156 0
1.0 -172 -151 0
1.0 157 -65 0
1.0 -55 -182 0
1.0 -161 -49 0
1.0 77 131 0
1.0 177 -122 0
1.0 20 199 0
1.0 155 -120 0
1.0 -71 19 0
1.0 -84 -158 0
1.0 139 81 0
1.0 130 185 0
1.0 115 77 0
1.0 199 148 0
1.0 147 -101 0
1.0 21 135 0
1.0 -154 143 0
1.0 -100 84 0
1.0 -165 25 0
1.0 9 -182 0
1.0 59 153 0
1.0 100 92 0
1.0 -193 173 0
1.0 -108 174 0
1.0 116 23 0
1.0 107 74 0
1.0 -99 -189 0
1.0 171 63 0
1.0 16 -45 0
1.0 -137 -163 0
1.0 -136 109 0
1.0 -82 -48 0
1.0 71 -2 0
1.0 76 -66 0
1.0 55 12 0
1.0 75 110 0
1.0 154 140 0
1.0 102 167 0
1.0 75 -162 0
1.0 -9 184 0
1.0 186 168 0
1.0 34 104 0
1.0 -116 -115 0
1.0 24 -165 0
1.0 105 86 0
1.0 52 -87 0
1.0 48 124 0
1.0 -107 39 0
1.0 -6 190 0
1.0 -93 187 0
1.0 -101 -40 0
1.0 -5 -79 0
1.0 -164 170 0
1.0 -56 -159 0
1.0 -82 -25 0
1.0 64 93 0
1.0 -82 -34 0
1.0 -21 -36 0
1.0 75 182 0
1.0 -60 148 0
1.0 118 -103 0
1.0 61 -180 0
1.0 -5 35 0
1.0 -127 13 0
1.0 46 184 0
1.0 -167 -187 0
1.0 33 -36 0
1.0 23 -31 0
1.0 -69 71 0
1.0 147 -130 0
1.0 -61 121 0
1.0 -58 -116 0
1.0 -100 184 0
1.0 171 140 0
1.0 -176 -21 0
1.0 -51 -81 0
1.0 -151 110 0
1.0 39 20 0
1.0 -140 -186 0
1.0 101 91 0
1.0 75 84 0
1.0 24 -80 0
1.0 -100 -31 0
1.0 111 120 0
1.0 -30 37 0
1.0 -56 -37 0
1.0 -22 -139 0
1.0 -30 -93 0
1.0 -176 -189 0
1.0 -69 -196 0
1.0 -27 -194 0
1.0 -114 -189 0
1.0 25 157 0
1.0 193 178 0
1.0 -116 -70 0
1.0 162 -59 0
1.0 -48 -197 0
1.0 193 135 0
1.0 -128 3 0
1.0 -191 154 0
1.0 110 -194 0
1.0 -171 173 0
1.0 43 53 0
1.0 -112 -81 0
1.0 77 79 0
1.0 13 -159 0
1.0 -161 -44 0
1.0 -198 -165 0
1.0 159 -64 0
1.0 37 126 0
1.0 178 48 0
1.0 128 25 0
1.0 103 -122 0
1.0 80 163 0
1.0 -6 38 0
1.0 -3 -159 0
1.0 22 119 0
1.0 -44 106 0
1.0 -154 19 0
1.0 43 -158 0
1.0 80 -160 0
1.0 -122 -116 0
1.0 -154 -191 0
1.0 -149 -41 0
1.0 160 7 0
1.0 113 165 0
1.0 -184 135 0
1.0 -93 -33 0
1.0 -193 -31 0
1.0 147 130 0
1.0 121 173 0
1.0 13 -171 0
1.0 -177 69 0
1.0 -33 1 0
1.0 135 102 0
1.0 -134 -13 0
1.0 44 -130 0
1.0 59 -82 0
1.0 54 145 0
1.0 116 89 0
1.0 -157 -15 0
1.0 15 -136 0
1.0 -38 -48 0
1.0 60 -175 0
1.0 104 -137 0
1.0 -19 183 0
1.0 -128 191 0
1.0 -79 177 0
1.0 192 117 0
1.0 -53 30 0
1.0 77 -131 0
1.0 106 157 0
1.0 -94 -133 0
1.0 -115 114 0
1.0 104 -122 0
1.0 99 20 0
1.0 136 -41 0
1.0 71 -49 0
1.0 180 137 0
1.0 94 -123 0
1.0 55 -66 0
1.0 180 81 0
1.0 2 -97 0
1.0 -117 82 0
1.0 123 -84 0
1.0 -133 -118 0
1.0 -54 -23 0
1.0 -145 -91 0
1.0 -157 -32 0
1.0 113 -182 0
1.0 78 -84 0
1.0 165 5 0
1.0 89 87 0
1.0 -4 19 0
1.0 41 -130 0
1.0 -21 -139 0
1.0 -171 155 0
1.0 -136 131 0
1.0 14 -12 0
1.0 16 -53 0
1.0 -139 -145 0
1.0 -163 58 0
1.0 -187 4 0
1.0 -143 -175 0
1.0 -130 96 0
1.0 26 192 0
1.0 4 86 0
1.0 -139 83 0
1.0 27 -47 0
1.0 -104 19 0
1.0 23 -183 0
1.0 157 81 0
1.0 -177 72 0
1.0 64 31 0
1.0 116 59 0
1.0 -141 -9 0
1.0 -56 -151 0
1.0 169 -149 0
1.0 -131 148 0
1.0 -29 33 0
1.0 104 -126 0
1.0 156 47 0
1.0 -106 122 0
1.0 130 -57 0
1.0 -8 -170 0
1.0 -118 195 0
1.0 -142 -123 0
1.0 -155 111 0
1.0 37 -180 0
1.0 27 -62 0
1.0 -183 -190 0
1.0 47 190 0
1.0 159 43 0
1.0 -37 -197 0
1.0 -119 63 0
1.0 -174 123 0
1.0 102 -159 0
1.0 21 67 0
1.0 -57 -37 0
1.0 -26 -14 0
1.0 57 186 0
1.0 182 -188 0
1.0 -50 20 0
1.0 142 107 0
1.0 -66 36 0
1.0 103 -31 0
1.0 67 5 0
1.0 19 18 0
1.0 -3 -139 0
1.0 126 -40 0
1.0 -60 59 0
1.0 166 31 0
1.0 -66 -17 0
1.0 -47 -6 0
1.0 11 188 0
1.0 -6 83 0
1.0 -21 -72 0
1.0 -111 -78 0
1.0 -136 -120 0
1.0 -150 16 0
1.0 -32 49 0
1.0 -55 110 0
1.0 98 -198 0
1.0 -80 -197 0
1.0 68 -103 0
1.0 -180 -168 0
1.0 87 119 0
1.0 135 -150 0
1.0 199 35 0
1.0 -144 38 0
1.0 -35 -10 0
1.0 7 54 0
1.0 157 -61 0
1.0 28 -200 0
1.0 -119 70 0
1.0 19 3 0
1.0 37 -66 0
1.0 103 -186 0
1.0 196 165 0
1.0 19 -64 0
1.0 -124 -127 0
1.0 127 165 0
1.0 35 18 0
1.0 21 119 0
1.0 184 139 0
1.0 125 -60 0
1.0 -25 72 0
1.0 136 197 0
1.0 124 131 0
1.0 95 -78 0
1.0 -96 -194 0
1.0 -112 52 0
1.0 -191 -12 0
1.0 72 3 0
1.0 -75 157 0
1.0 153 156 0
1.0 -87 -80 0
1.0 -157 22 0
1.0 -16 -91 0
1.0 143 -142 0
1.0 154 2 0
1.0 -5 82 0
1.0 38 -58 0
1.0 14 158 0
1.0 38 -194 0
1.0 16 190 0
1.0 -81 15 0
1.0 -156 -179 0
1.0 -181 -2 0
1.0 84 -54 0
1.0 -111 -152 0
1.0 110 -180 0
1.0 -174 -105 0
1.0 95 -187 0
1.0 -2 -177 0
1.0 156 -153 0
1.0 -155 200 0
1.0 -53 -183 0
1.0 135 71 0
1.0 -51 113 0
1.0 18 -131 0
1.0 118 -32 0
1.0 9 -85 0
1.0 38 -142 0
1.0 141 -19 0
1.0 -2 -188 0
1.0 -59 -46 0
1.0 -159 -171 0
1.0 101 145 0
1.0 -176 -175 0
1.0 -60 13 0
1.0 154 48 0
1.0 66 118 0
1.0 106 -46 0
1.0 92 184 0
1.0 154 5 0
1.0 149 -114 0
1.0 -89 -10 0
1.0 22 -57 0
1.0 104 -134 0
1.0 51 -159 0
1.0 -5 40 0
1.0 -23 -192 0
1.0 196 -172 0
1.0 86 -102 0
1.0 -112 -177 0
1.0 -33 -167 0
1.0 -100 -178 0
1.0 -137 -142 0
1.0 182 26 0
1.0 -17 182 0
1.0 -154 10 0
1.0 112 25 0
1.0 -1 135 0
1.0 -102 64 0
1.0 -42 -75 0
1.0 -17 -58 0
1.0 83 154 0
1.0 -136 183 0
1.0 -193 -69 0
1.0 -94 141 0
1.0 -75 -84 0
1.0 -148 -97 0
1.0 -172 -129 0
1.0 -186 84 0
1.0 -37 -190 0
1.0 173 -80 0
1.0 148 188 0
1.0 -128 198 0
1.0 -82 62 0
1.0 159 -157 0
1.0 -85 184 0
1.0 -67 -106 0
1.0 95 106 0
1.0 185 -137 0
1.0 -124 103 0
1.0 101 -109 0
1.0 171 -34 0
1.0 190 29 0
1.0 -12 178 0
1.0 -84 -182 0
1.0 -58 -46 0
1.0 -78 -107 0
1.0 81 -170 0
1.0 -24 63 0
1.0 74 -88 0
1.0 -147 -123 0
1.0 68 -192 0
1.0 -173 186 0
1.0 31 -114 0
1.0 21 -141 0
1.0 110 -171 0
1.0 -33 -48 0
1.0 135 39 0
1.0 161 122 0
1.0 -113 12 0
1.0 -197 119 0
1.0 -33 139 0
1.0 -80 -25 0
1.0 -195 42 0
1.0 -90 114 0
1.0 -152 -143 0
1.0 -65 -108 0
1.0 119 -117 0
1.0 -36 178 0
1.0 -116 -78 0
1.0 -102 74 0
1.0 -116 107 0
1.0 20 -59 0
1.0 1 132 0
1.0 39 -22 0
1.0 138 -104 0
1.0 81 -15 0
1.0 -93 -161 0
1.0 35 -177 0
1.0 -83 -15 0
1.0 73 182 0
1.0 -113 -157 0
1.0 -178 -180 0
1.0 84 -183 0
1.0 -197 129 0
1.0 90 -153 0
1.0 129 174 0
1.0 -188 27 0
1.0 -9 -188 0
1.0 144 -71 0
1.0 51 -182 0
1.0 164 -125 0
1.0 54 -58 0
1.0 11 -132 0
1.0 -106 140 0
1.0 -167 -65 0
1.0 53 -86 0
1.0 -156 168 0
1.0 -149 -154 0
1.0 78 -37 0
1.0 95 -121 0
1.0 53 -141 0
1.0 81 195 0
1.0 60 -3 0
1.0 -88 118 0
1.0 85 26 0
1.0 -179 189 0
1.0 -25 -16 0
1.0 137 -61 0
1.0 -2 68 0
1.0 -62 -196 0
1.0 198 151 0
1.0 -69 -141 0
1.0 -166 -178 0
1.0 166 -130 0
1.0 -146 188 0
1.0 49 134 0
1.0 -1 16 0
1.0 -11 61 0
1.0 12 15 0
1.0 155 -22 0
1.0 199 -18 0
1.0 -148 66 0
1.0 -54 -65 0
1.0 -199 -46 0
1.0 61 84 0
1.0 145 -44 0
1.0 59 174 0
1.0 -196 -67 0
1.0 -85 199 0
1.0 -65 -115 0
1.0 180 -101 0
1.0 -146 173 0
1.0 57 38 0
1.0 -81 -159 0
1.0 -133 -192 0
1.0 -59 -86 0
1.0 -85 -81 0
1.0 195 -100 0
1.0 -200 -88 0
1.0 -61 -128 0
1.0 -165 30 0
1.0 -188 -76 0
1.0 68 -135 0
1.0 21 -169 0
1.0 50 44 0
1.0 144 -121 0
1.0 8 169 0
1.0 -96 41 0
1.0 -70 105 0
1.0 -180 88 0
1.0 -22 26 0
1.0 -194 43 0
1.0 86 1 0
1.0 -121 -105 0
1.0 -73 -62 0
1.0 102 -183 0
1.0 87 131 0
1.0 -19 7 0
1.0 32 88 0
1.0 130 30 0
1.0 31 -156 0
1.0 61 -17 0
1.0 -78 -77 0
1.0 -60 -128 0
1.0 59 180 0
1.0 -187 128 0
1.0 15 -200 0
1.0 -29 114 0
1.0 70 -3 0
1.0 19 91 0
1.0 168 164 0
1.0 -92 -26 0
1.0 6 -187 0
1.0 114 -144 0
1.0 144 -55 0
1.0 168 29 0
1.0 -32 42 0
1.0 -133 29 0
1.0 -192 21 0
1.0 46 100 0
1.0 86 -60 0
1.0 -4 -53 0
1.0 -107 197 0
1.0 -26 151 0
1.0 -193 -77 0
1.0 105 52 0
1.0 -72 -150 0
1.0 -50 -11 0
1.0 -71 12 0
1.0 64 -59 0
1.0 56 140 0
1.0 -91 155 0
1.0 31 -44 0
1.0 95 -31 0
1.0 181 10 0
1.0 -21 54 0
1.0 -65 -97 0
1.0 156 186 0
1.0 125 143 0
1.0 98 -29 0
1.0 72 -105 0
1.0 -135 -96 0
1.0 -105 -18 0
1.0 71 -110 0
1.0 7 -182 0
1.0 -167 162 0
1.0 -104 64 0
1.0 -93 -3 0
1.0 -107 194 0
1.0 -89 -65 0
1.0 -83 -103 0
1.0 12 135 0
1.0 -116 151 0
1.0 -112 152 0
1.0 16 -79 0
1.0 82 -147 0
1.0 140 4 0
1.0 69 -188 0
1.0 -90 -140 0
1.0 -75 -192 0
1.0 142 98 0
1.0 50 46 0
1.0 -125 87 0
1.0 -33 -46 0
1.0 -50 -25 0
1.0 13 -21 0
1.0 161 172 0
1.0 163 -123 0
1.0 -21 97 0
1.0 -143 29 0
1.0 115 -108 0
1.0 -154 67 0
1.0 -92 -119 0
1.0 140 189 0
1.0 -161 -10 0
1.0 132 -159 0
1.0 55 -187 0
1.0 15 -157 0
1.0 65 136 0
1.0 3 196 0
1.0 -115 141 0
1.0 -129 5 0
1.0 14 -88 0
1.0 46 -40 0
1.0 26 120 0
1.0 -77 -162 0
1.0 -97 47 0
1.0 -43 -178 0
1.0 119 192 0
1.0 -197 165 0
1.0 -52 147 0
1.0 -187 54 0
1.0 174 95 0
1.0 -57 -23 0
1.0 69 -148 0
1.0 126 46 0
1.0 38 79 0
1.0 43 26 0
1.0 -173 -200 0
1.0 -53 189 0
1.0 84 -24 0
1.0 46 -65 0
1.0 12 -145 0
1.0 -191 93 0
1.0 172 72 0
1.0 -98 106 0
1.0 105 -101 0
1.0 -90 -200 0
1.0 -23 58 0
1.0 -122 -6 0
1.0 151 -8 0
1.0 -101 53 0
1.0 125 32 0
1.0 137 196 0
1.0 -97 -121 0
1.0 -120 -181 0
1.0 39 -72 0
1.0 78 192 0
1.0 -199 166 0
1.0 -19 -139 0
1.0 -170 -57 0
1.0 -53 -56 0
1.0 -176 145 0
1.0 126 -93 0
1.0 -165 48 0
1.0 40 18 0
1.0 -183 41 0
1.0 -179 -109 0
1.0 165 107 0
1.0 -163 -2 0
1.0 147 101 0
1.0 194 -71 0
1.0 119 -159 0
1.0 -176 -71 0
1.0 -111 134 0
1.0 42 103 0
1.0 10 -94 0
1.0 -96 190 0
1.0 -91 144 0
1.0 15 -149 0
1.0 107 42 0
1.0 113 87 0
1.0 -21 1 0
1.0 104 -152 0
1.0 45 -93 0
1.0 -83 -196 0
1.0 139 -96 0
1.0 44 -97 0
1.0 138 176 0
1.0 63 74 0
1.0 -75 -186 0
1.0 137 -13 0
1.0 -105 -177 0
1.0 -172 -104 0
1.0 199 16 0
1.0 -112 148 0
1.0 124 -25 0
1.0 98 -172 0
1.0 -158 13 0
1.0 25 -42 0
1.0 -18 -198 0
1.0 102 77 0
1.0 -92 163 0
1.0 111 134 0
1.0 158 152 0
1.0 124 89 0
1.0 -101 -178 0
1.0 19 52 0
1.0 49 -173 0
1.0 50 -126 0
1.0 -89 -191 0
1.0 124 198 0
1.0 -149 53 0
1.0 -141 164 0
1.0 -141 -129 0
1.0 -180 22 0
1.0 -195 21 0
1.0 -146 28 0
1.0 19 -129 0
1.0 126 66 0
1.0 -118 160 0
1.0 123 101 0
1.0 29 67 0
1.0 89 17 0
1.0 -37 -14 0
1.0 42 110 0
1.0 39 -50 0
1.0 115 25 0
1.0 185 -186 0
1.0 -86 -191 0
1.0 -58 -192 0
1.0 8 158 0
1.0 172 154 0
1.0 64 -43 0
1.0 92 75 0
1.0 100 104 0
1.0 -89 -130 0
1.0 120 -162 0
1.0 -153 -11 0
1.0 168 -151 0
1.0 -104 -31 0
1.0 73 -26 0
1.0 -101 -134 0
1.0 37 -10 0
1.0 139 75 0
1.0 36 -188 0
1.0 -198 -158 0
1.0 -108 153 0
1.0 -183 59 0
1.0 85 -46 0
1.0 -180 191 0
1.0 -200 -69 0
1.0 -144 -41 0
1.0 -29 33 0
1.0 -191 117 0
1.0 -69 98 0
1.0 -157 88 0
1.0 134 -127 0
1.0 -118 -11 0
1.0 79 70 0
1.0 111 -53 0
1.0 -85 169 0
1.0 -85 -158 0
1.0 55 83 0
1.0 170 -111 0
1.0 37 -78 0
1.0 88 -145 0
1.0 -14 -126 0
1.0 179 189 0
1.0 -158 29 0
1.0 -187 111 0
1.0 193 -200 0
1.0 110 -105 0
1.0 182 83 0
1.0 27 170 0
1.0 -95 23 0
1.0 -11 -29 0
1.0 58 74 0
1.0 184 -6 0
1.0 -6 -139 0
1.0 43 6 0
1.0 89 -159 0
1.0 -129 127 0
1.0 149 -121 0
1.0 -150 33 0
1.0 106 139 0
1.0 145 -137 0
1.0 75 -6 0
1.0 -12 124 0
1.0 83 33 0
1.0 160 -171 0
1.0 91 130 0
1.0 162 196 0
1.0 -134 99 0
1.0 35 -23 0
1.0 29 92 0
1.0 -16 167 0
1.0 -200 -154 0
1.0 124 143 0
1.0 73 136 0
1.0 -132 102 0
1.0 -200 58 0
1.0 -81 -172 0
1.0 -63 170 0
1.0 -136 -87 0
1.0 41 -84 0
1.0 -26 163 0
1.0 -98 34 0
1.0 136 -34 0
1.0 -91 -39 0
1.0 10 113 0
1.0 -82 27 0
1.0 -114 -125 0
1.0 -9 48 0
1.0 -10 -98 0
1.0 -131 65 0
1.0 98 -33 0
1.0 -71 171 0
1.0 -83 -39 0
1.0 -66 -102 0
1.0 -27 136 0
1.0 183 -51 0
1.0 148 1 0
1.0 -65 -37 0
1.0 -69 -146 0
1.0 116 -109 0
1.0 -147 172 0
1.0 -74 146 0
1.0 -81 124 0
1.0 175 -2 0
1.0 3 155 0
1.0 191 145 0
1.0 -90 179 0
1.0 88 18 0
1.0 190 167 0
1.0 -112 -37 0
1.0 160 -96 0
1.0 98 110 0
1.0 -65 57 0
1.0 -1 196 0
1.0 174 114 0
1.0 132 -99 0
1.0 -66 -141 0
1.0 -178 -146 0
1.0 41 -24 0
1.0 134 -127 0
1.0 184 -5 0
1.0 200 -168 0
1.0 82 170 0
1.0 -69 -129 0
1.0 -70 117 0
1.0 -62 -80 0
1.0 104 56 0
1.0 183 -79 0
1.0 -83 89 0
1.0 57 -24 0
1.0 -194 89 0
1.0 -17 84 0
1.0 -200 108 0
1.0 -188 118 0
1.0 -174 -5 0
1.0 -83 -164 0
1.0 53 -71 0
1.0 94 102 0
1.0 -190 198 0
1.0 81 146 0
1.0 -53 27 0
1.0 -144 -106 0
1.0 111 -59 0
1.0 -23 195 0
1.0 -65 -6 0
1.0 107 32 0
1.0 -29 -196 0
1.0 -141 -196 0
1.0 22 -131 0
1.0 37 -164 0
1.0 -23 155 0
1.0 -150 99 0
1.0 -105 104 0
1.0 -136 -19 0
1.0 14 -10 0
1.0 -5 63 0
1.0 -194 181 0
1.0 -145 -74 0
1.0 29 -118 0
1.0 -17 -132 0
1.0 -36 -164 0
1.0 -182 -39 0
1.0 -48 9 0
1.0 71 97 0
1.0 78 71 0
1.0 -145 -72 0
1.0 -190 2 0
1.0 -134 -143 0
1.0 -106 58 0
1.0 97 -75 0
1.0 -84 -32 0
1.0 128 76 0
1.0 147 113 0
1.0 185 -18 0
1.0 -19 -14 0
1.0 -157 107 0
1.0 -165 61 0
1.0 136 32 0
1.0 -63 -2 0
1.0 -77 191 0
1.0 -104 24 0
1.0 41 177 0
1.0 191 -43 0
1.0 150 -133 0
1.0 -194 -157 0
1.0 -189 180 0
1.0 181 120 0
1.0 111 37 0
1.0 -60 193 0
1.0 -169 -164 0
1.0 -6 -171 0
1.0 104 113 0
1.0 70 45 0
1.0 -24 173 0
1.0 93 149 0
1.0 186 141 0
1.0 -134 -118 0
1.0 82 104 0
1.0 75 -166 0
1.0 78 -112 0
1.0 156 -100 0
1.0 -72 -114 0
1.0 -63 46 0
1.0 187 -182 0
1.0 100 -36 0
1.0 140 82 0
1.0 -47 -110 0
1.0 22 -66 0
1.0 -165 78 0
1.0 -191 141 0
1.0 186 -166 0
1.0 148 192 0
1.0 28 -112 0
1.0 -194 94 0
1.0 -4 173 0
1.0 39 37 0
1.0 114 -158 0
1.0 -99 40 0
1.0 5 -57 0
1.0 -48 147 0
1.0 59 25 0
1.0 118 -24 0
1.0 -197 57 0
1.0 94 147 0
1.0 -105 79 0
1.0 118 -69 0
1.0 126 -142 0
1.0 89 -73 0
1.0 -97 91 0
1.0 -114 -91 0
1.0 -147 81 0
1.0 27 -184 0
1.0 -62 -159 0
1.0 -27 -20 0
1.0 -161 177 0
1.0 -49 -174 0
1.0 -64 -195 0
1.0 85 95 0
1.0 175 31 0
1.0 -14 118 0
1.0 76 -64 0
1.0 84 157 0
1.0 133 -180 0
1.0 -153 90 0
1.0 -84 -86 0
1.0 -180 -80 0
1.0 -110 -70 0
1.0 -187 86 0
1.0 -150 54 0
1.0 10 -20 0
1.0 -200 -171 0
1.0 -60 -48 0
1.0 -134 -161 0
1.0 40 -110 0
1.0 179 -22 0
1.0 108 73 0
1.0 126 -193 0
1.0 13 168 0
1.0 -138 -200 0
1.0 -48 -132 0
1.0 93 -52 0
1.0 161 -160 0
1.0 -181 156 0
1.0 -29 -133 0
1.0 126 -37 0
1.0 -4 -167 0
1.0 -166 114 0
1.0 -45 -80 0
1.0 132 86 0
1.0 45 151 0
1.0 -107 -136 0
1.0 69 -61 0
1.0 -97 -179 0
1.0 146 -81 0
1.0 -194 182 0
1.0 -61 -117 0
1.0 2 44 0
1.0 195 -116 0
1.0 51 -188 0
1.0 -48 -125 0
1.0 103 44 0
1.0 -124 -86 0
1.0 -67 -82 0
1.0 -199 -131 0
1.0 175 -4 0
1.0 119 -120 0
1.0 107 -106 0
1.0 31 -1 0
1.0 -44 -142 0
1.0 27 140 0
1.0 22 41 0
1.0 172 -142 0
1.0 -146 66 0
1.0 185 186 0
1.0 92 -123 0
1.0 123 -142 0
1.0 -83 -36 0
1.0 175 -19 0
1.0 60 25 0
1.0 -166 -36 0
1.0 -101 93 0
1.0 -79 -9 0
1.0 131 22 0
1.0 164 146 0
1.0 -181 -153 0
1.0 -171 159 0
1.0 183 -168 0
1.0 3 -38 0
1.0 -131 34 0
1.0 -42 -167 0
1.0 188 -70 0
1.0 -15 -44 0
1.0 -197 -153 0
1.0 -111 104 0
1.0 72 58 0
1.0 -95 101 0
1.0 134 -168 0
1.0 -134 -12 0
1.0 81 174 0
1.0 18 70 0
1.0 -22 -44 0
1.0 148 178 0
1.0 35 -66 0
1.0 -167 -72 0
1.0 39 -188 0
1.0 200 25 0
1.0 -198 167 0
1.0 37 68 0
1.0 -111 9 0
1.0 186 14 0
1.0 -80 170 0
1.0 -41 103 0
1.0 91 22 0
1.0 -46 147 0
1.0 114 -146 0
1.0 13 -86 0
1.0 -94 196 0
1.0 9 58 0
1.0 -27 47 0
1.0 -150 80 0
1.0 -101 -199 0
1.0 -145 99 0
1.0 45 46 0
1.0 -131 14 0
1.0 -9 161 0
1.0 -18 2 0
1.0 -48 -39 0
1.0 118 58 0
1.0 -57 168 0
1.0 66 -154 0
1.0 -199 -66 0
1.0 -79 147 0
1.0 -108 -57 0
1.0 -58 -10 0
1.0 -48 -81 0
1.0 -139 -141 0
1.0 -108 -149 0
1.0 102 -55 0
1.0 121 -51 0
1.0 198 -185 0
1.0 42 191 0
1.0 1 199 0
1.0 80 109 0
1.0 50 -198 0
1.0 -146 8 0
1.0 -62 -16 0
1.0 -66 178 0
1.0 -162 68 0
1.0 -58 198 0
1.0 -196 107 0
1.0 15 120 0
1.0 118 104 0
1.0 -111 -152 0
1.0 -167 59 0
1.0 36 -135 0
1.0 -3 64 0
1.0 -61 101 0
1.0 -8 25 0
1.0 145 23 0
1.0 -127 106 0
1.0 58 37 0
1.0 95 -164 0
1.0 -99 -152 0
1.0 -16 127 0
1.0 -27 80 0
1.0 104 63 0
1.0 -86 141 0
1.0 46 -36 0
1.0 -72 -60 0
1.0 24 -184 0
1.0 136 -23 0
1.0 149 -185 0
1.0 64 -158 0
1.0 20 -66 0
1.0 -6 126 0
1.0 -162 167 0
1.0 -26 81 0
1.0 -64 -96 0
1.0 -118 194 0
1.0 178 175 0
1.0 132 -53 0
1.0 118 -24 0
1.0 -150 -174 0
1.0 -140 -128 0
1.0 9 144 0
1.0 40 -186 0
1.0 179 -20 0
1.0 -195 -67 0
1.0 119 6 0
1.0 -29 -134 0
1.0 107 133 0
1.0 60 35 0
1.0 -179 27 0
1.0 -12 175 0
1.0 199 146 0
1.0 -143 -152 0
1.0 -29 -19 0
1.0 178 -156 0
1.0 -46 116 0
1.0 128 -38 0
1.0 -178 -76 0
1.0 50 157 0
1.0 -103 47 0
1.0 -198 97 0
1.0 -116 170 0
1.0 126 -58 0
1.0 174 -171 0
1.0 8 -108 0
1.0 -183 23 0
1.0 179 195 0
1.0 -41 195 0
1.0 91 120 0
1.0 89 54 0
1.0 -112 100 0
1.0 -71 35 0
1.0 143 -43 0
1.0 -65 38 0
1.0 -32 40 0
1.0 -34 -52 0
1.0 -171 177 0
1.0 31 -29 0
1.0 128 -58 0
1.0 92 15 0
1.0 -57 -139 0
1.0 -176 117 0
1.0 156 -90 0
1.0 -142 -192 0
1.0 -169 -44 0
1.0 -72 -44 0
1.0 -101 -169 0
1.0 183 74 0
1.0 -12 -185 0
1.0 -102 127 0
1.0 16 -76 0
1.0 68 160 0
1.0 4 40 0
1.0 83 -177 0
1.0 -146 -73 0
1.0 -146 -3 0
1.0 -187 129 0
1.0 -55 141 0
1.0 16 191 0
1.0 -151 -97 0
1.0 136 155 0
1.0 131 104 0
1.0 176 -179 0
1.0 181 -172 0
1.0 101 -25 0
1.0 165 -1 0
1.0 192 -54 0
1.0 151 182 0
1.0 -136 124 0
1.0 -27 107 0
1.0 -85 147 0
1.0 119 4 0
1.0 -28 -88 0
1.0 -89 200 0
1.0 54 36 0
1.0 18 -116 0
1.0 40 194 0
1.0 100 -162 0
1.0 109 193 0
1.0 196 82 0
1.0 170 19 0
1.0 -19 189 0
1.0 24 158 0
1.0 -74 -165 0
1.0 -158 13 0
1.0 175 47 0
1.0 -39 90 0
1.0 172 -154 0
1.0 -173 -75 0
1.0 63 136 0
1.0 -93 -140 0
1.0 105 121 0
1.0 -133 -58 0
1.0 -104 -161 0
1.0 -51 100 0
1.0 -53 36 0
1.0 110 -161 0
1.0 96 -81 0
1.0 -20 -186 0
1.0 -106 34 0
1.0 -91 -106 0
1.0 -66 -137 0
1.0 -36 113 0
1.0 -148 99 0
1.0 59 -131 0
1.0 -12 90 0
1.0 -76 -97 0
1.0 131 141 0
1.0 46 -166 0
1.0 102 -152 0
1.0 64 164 0
1.0 62 -139 0
1.0 70 100 0
1.0 -189 17 0
1.0 114 67 0
1.0 8 65 0
1.0 -30 -80 0
1.0 31 192 0
1.0 -155 93 0
1.0 -32 -175 0
1.0 -75 11 0
1.0 -28 -93 0
1.0 -160 -172 0
1.0 36 49 0
1.0 -128 -187 0
1.0 178 -64 0
1.0 -157 -158 0
1.0 133 86 0
1.0 97 -69 0
1.0 162 -197 0
1.0 169 48 0
1.0 97 111 0
1.0 -97 65 0
1.0 129 34 0
1.0 192 -157 0
1.0 -42 -160 0
1.0 29 -200 0
1.0 -196 -126 0
1.0 -174 1 0
1.0 111 37 0
1.0 102 75 0
1.0 -109 90 0
1.0 46 186 0
1.0 146 -153 0
1.0 -153 -86 0
1.0 -12 -75 0
1.0 75 -80 0
1.0 -117 147 0
1.0 22 -74 0
1.0 164 162 0
1.0 147 52 0
1.0 4 -120 0
1.0 -6 28 0
1.0 102 -17 0
1.0 -96 56 0
1.0 2 153 0
1.0 -27 -77 0
1.0 -38 -181 0
1.0 32 94 0
1.0 -13 141 0
1.0 169 96 0
1.0 112 37 0
1.0 92 8 0
1.0 -161 -49 0
1.0 -125 -69 0
1.0 -49 175 0
1.0 -68 22 0
1.0 163 -107 0
1.0 2 -134 0
1.0 -170 50 0
1.0 -58 139 0
1.0 187 -70 0
1.0 138 -182 0
1.0 156 19 0
1.0 -41 182 0
1.0 -89 3 0
1.0 136 -138 0
1.0 -187 123 0
1.0 62 120 0
1.0 -189 -66 0
1.0 -47 33 0
1.0 52 180 0
1.0 162 130 0
1.0 -132 30 0
1.0 -167 -143 0
1.0 -65 -137 0
1.0 -56 58 0
1.0 -124 -134 0
1.0 -166 85 0
1.0 -65 199 0
1.0 128 4 0
1.0 -33 -16 0
1.0 -158 98 0
1.0 -35 150 0
1.0 -8 -123 0
1.0 -57 108 0
1.0 193 74 0
1.0 73 -148 0
1.0 151 -159 0
1.0 -174 -186 0
1.0 -84 -137 0
1.0 87 103 0
1.0 26 145 0
1.0 -52 128 0
1.0 -1 143 0
1.0 91 184 0
1.0 143 -133 0
1.0 119 9 0
1.0 -145 2 0
1.0 -104 -130 0
1.0 75 -152 0
1.0 -79 114 0
1.0 -57 -72 0
1.0 -56 -26 0
1.0 -159 13 0
1.0 21 -163 0
1.0 -164 200 0
1.0 -130 124 0
1.0 -76 -7 0
1.0 121 -102 0
1.0 -173 187 0
1.0 13 -111 0
1.0 124 -142 0
1.0 -104 127 0
1.0 -126 108 0
1.0 32 -130 0
1.0 136 190 0
1.0 91 95 0
1.0 82 156 0
1.0 67 -119 0
1.0 -60 -113 0
1.0 39 -46 0
1.0 154 -164 0
1.0 94 79 0
1.0 69 -152 0
1.0 46 -119 0
1.0 75 -114 0
1.0 -33 86 0
1.0 199 67 0
1.0 112 86 0
1.0 50 -22 0
1.0 -100 -140 0
1.0 -91 -59 0
1.0 177 149 0
1.0 -63 85 0
1.0 -171 -123 0
1.0 190 -43 0
1.0 -129 -8 0
1.0 -30 -14 0
1.0 154 93 0
1.0 -152 -23 0
1.0 -172 45 0
1.0 -130 -170 0
1.0 93 116 0
1.0 -159 76 0
1.0 84 -148 0
1.0 161 -184 0
1.0 -77 139 0
1.0 -162 -140 0
1.0 -185 -134 0
1.0 104 -96 0
1.0 11 -84 0
1.0 160 61 0
1.0 -8 -120 0
1.0 104 -199 0
1.0 137 42 0
1.0 181 -164 0
1.0 98 198 0
1.0 -93 -94 0
1.0 178 -76 0
1.0 -137 -129 0
1.0 -48 -138 0
1.0 -136 197 0
1.0 -38 139 0
1.0 -103 -2 0
1.0 199 63 0
1.0 -156 -198 0
1.0 74 68 0
1.0 -196 51 0
1.0 -188 -69 0
1.0 -65 -125 0
1.0 -64 -168 0
1.0 -170 -105 0
1.0 167 -166 0
1.0 164 54 0
1.0 122 -126 0
1.0 -176 -2 0
1.0 70 -154 0
1.0 78 -84 0
1.0 -51 158 0
1.0 -62 74 0
1.0 -39 48 0
1.0 102 7 0
1.0 -132 -85 0
1.0 87 -98 0
1.0 52 -157 0
1.0 41 128 0
1.0 -85 -179 0
1.0 -52 100 0
1.0 147 127 0
1.0 134 130 0
1.0 -15 -9 0
1.0 107 -43 0
1.0 200 149 0
1.0 -77 -158 0
1.0 -136 -43 0
1.0 142 83 0
1.0 -10 -169 0
1.0 98 -6 0
1.0 15 -181 0
1.0 23 71 0
1.0 20 166 0
1.0 123 193 0
1.0 36 -164 0
1.0 47 123 0
1.0 -91 -200 0
1.0 -6 8 0
1.0 -188 114 0
1.0 184 20 0
1.0 186 -95 0
1.0 -88 -155 0
1.0 119 -13 0
1.0 135 164 0
1.0 164 -21 0
1.0 -29 113 0
1.0 27 130 0
1.0 150 -61 0
1.0 155 112 0
1.0 -67 -10 0
1.0 -22 -65 0
1.0 -28 -172 0
1.0 -192 194 0
1.0 107 -149 0
1.0 -79 65 0
1.0 -125 157 0
1.0 -69 -5 0
1.0 -14 87 0
1.0 -151 -69 0
1.0 -40 173 0
1.0 167 130 0
1.0 78 -89 0
1.0 -154 150 0
1.0 -107 -146 0
1.0 -151 -78 0
1.0 -165 -29 0
1.0 97 -192 0
1.0 -164 -62 0
1.0 192 21 0
1.0 110 9 0
1.0 -159 9 0
1.0 155 -97 0
1.0 174 -149 0
1.0 177 70 0
1.0 61 146 0
1.0 -8 -179 0
1.0 199 -157 0
1.0 -166 -93 0
1.0 -102 110 0
1.0 -6 -27 0
1.0 -176 -31 0
1.0 100 -171 0
1.0 -116 -36 0
1.0 -14 137 0
1.0 -93 188 0
1.0 -81 -90 0
1.0 200 170 0
1.0 -196 -198 0
1.0 -29 -103 0
1.0 73 -149 0
1.0 -184 -71 0
1.0 8 -32 0
1.0 -20 129 0
1.0 19 140 0
1.0 109 -118 0
1.0 116 -9 0
1.0 111 -199 0
1.0 -147 -159 0
1.0 -30 82 0
1.0 -113 -137 0
1.0 66 96 0
1.0 -35 -112 0
1.0 29 -126 0
1.0 134 124 0
1.0 123 158 0
1.0 -117 -198 0
1.0 -80 -127 0
1.0 -63 -119 0
1.0 15 154 0
1.0 -66 114 0
1.0 40 -42 0
1.0 166 125 0
1.0 -83 -45 0
1.0 -43 -156 0
1.0 -82 -126 0
1.0 45 37 0
1.0 -191 84 0
1.0 -198 102 0
1.0 143 -186 0
1.0 -111 -27 0
1.0 -72 -152 0
1.0 107 -135 0
1.0 -60 -149 0
1.0 -185 -3 0
1.0 87 72 0
1.0 -174 -179 0
1.0 165 130 0
1.0 157 18 0
1.0 -169 58 0
1.0 192 177 0
1.0 -125 -195 0
1.0 198 119 0
1.0 -191 -114 0
1.0 93 87 0
1.0 -16 -103 0
1.0 -120 199 0
1.0 -56 142 0
1.0 118 28 0
1.0 -22 54 0
1.0 -173 -36 0
1.0 -150 69 0
1.0 156 -7 0
1.0 -109 32 0
1.0 -31 144 0
1.0 -85 81 0
1.0 108 -32 0
1.0 -86 198 0
